65
1 0 83
2 0 3
2 1 78
3 0 92
3 1 48
3 2 39
4 0 45
4 1 47
4 2 95
4 3 2
5 0 53
5 1 76
5 2 8
5 3 99
5 4 83
6 0 3
6 1 78
6 2 62
6 3 2
6 4 9
6 5 21
7 0 99
7 1 39
7 2 7
7 3 67
7 4 76
7 5 43
7 6 70
8 0 53
8 1 21
8 2 3
8 3 96
8 4 75
8 5 93
8 6 50
8 7 7
9 0 76
9 1 85
9 2 78
9 3 90
9 4 73
9 5 32
9 6 66
9 7 55
9 8 61
10 0 47
10 1 77
10 2 62
10 3 44
10 4 20
10 5 61
10 6 26
10 7 71
10 8 34
10 9 6
11 0 21
11 1 88
11 2 97
11 3 93
11 4 34
11 5 30
11 6 85
11 7 67
11 8 42
11 9 11
11 10 47
12 0 20
12 1 6
12 2 96
12 3 29
12 4 45
12 5 17
12 6 51
12 7 93
12 8 20
12 9 26
12 10 8
12 11 66
13 0 17
13 1 55
13 2 100
13 3 20
13 4 56
13 5 60
13 6 41
13 7 89
13 8 40
13 9 95
13 10 62
13 11 62
13 12 45
14 0 13
14 1 28
14 2 4
14 3 61
14 4 75
14 5 98
14 6 14
14 7 81
14 8 76
14 9 96
14 10 94
14 11 14
14 12 7
14 13 14
15 0 13
15 1 57
15 2 97
15 3 65
15 4 77
15 5 37
15 6 18
15 7 41
15 8 40
15 9 40
15 10 43
15 11 67
15 12 18
15 13 62
15 14 91
16 0 45
16 1 94
16 2 52
16 3 92
16 4 22
16 5 25
16 6 45
16 7 67
16 8 37
16 9 84
16 10 95
16 11 4
16 12 30
16 13 1
16 14 57
16 15 59
17 0 14
17 1 93
17 2 83
17 3 37
17 4 37
17 5 85
17 6 18
17 7 17
17 8 99
17 9 66
17 10 28
17 11 30
17 12 98
17 13 41
17 14 92
17 15 5
17 16 7
18 0 60
18 1 23
18 2 36
18 3 21
18 4 43
18 5 23
18 6 41
18 7 16
18 8 26
18 9 78
18 10 22
18 11 16
18 12 6
18 13 39
18 14 33
18 15 62
18 16 53
18 17 61
19 0 19
19 1 13
19 2 13
19 3 85
19 4 89
19 5 39
19 6 35
19 7 89
19 8 38
19 9 88
19 10 83
19 11 38
19 12 18
19 13 23
19 14 14
19 15 19
19 16 33
19 17 65
19 18 43
20 0 38
20 1 7
20 2 99
20 3 31
20 4 96
20 5 42
20 6 19
20 7 40
20 8 8
20 9 88
20 10 18
20 11 65
20 12 98
20 13 57
20 14 54
20 15 45
20 16 95
20 17 81
20 18 47
20 19 78
21 0 33
21 1 85
21 2 89
21 3 17
21 4 87
21 5 30
21 6 61
21 7 35
21 8 43
21 9 37
21 10 12
21 11 46
21 12 57
21 13 7
21 14 19
21 15 51
21 16 55
21 17 1
21 18 47
21 19 50
21 20 90
22 0 23
22 1 82
22 2 2
22 3 38
22 4 52
22 5 87
22 6 69
22 7 27
22 8 90
22 9 24
22 10 53
22 11 5
22 12 37
22 13 37
22 14 2
22 15 98
22 16 100
22 17 77
22 18 70
22 19 27
22 20 3
22 21 27
23 0 39
23 1 68
23 2 57
23 3 65
23 4 41
23 5 88
23 6 100
23 7 39
23 8 41
23 9 73
23 10 22
23 11 86
23 12 70
23 13 52
23 14 25
23 15 91
23 16 13
23 17 73
23 18 8
23 19 72
23 20 95
23 21 77
23 22 40
24 0 46
24 1 24
24 2 90
24 3 92
24 4 99
24 5 75
24 6 27
24 7 31
24 8 78
24 9 28
24 10 67
24 11 82
24 12 75
24 13 98
24 14 47
24 15 45
24 16 57
24 17 18
24 18 4
24 19 87
24 20 80
24 21 56
24 22 28
24 23 66
25 0 92
25 1 88
25 2 29
25 3 55
25 4 87
25 5 50
25 6 31
25 7 69
25 8 99
25 9 38
25 10 34
25 11 12
25 12 24
25 13 52
25 14 12
25 15 7
25 16 21
25 17 67
25 18 47
25 19 60
25 20 27
25 21 2
25 22 98
25 23 85
25 24 75
26 0 20
26 1 76
26 2 87
26 3 30
26 4 65
26 5 63
26 6 67
26 7 51
26 8 32
26 9 85
26 10 29
26 11 51
26 12 17
26 13 60
26 14 61
26 15 35
26 16 8
26 17 42
26 18 49
26 19 7
26 20 92
26 21 54
26 22 42
26 23 94
26 24 7
26 25 92
27 0 65
27 1 27
27 2 58
27 3 5
27 4 59
27 5 72
27 6 70
27 7 18
27 8 91
27 9 2
27 10 61
27 11 51
27 12 69
27 13 54
27 14 43
27 15 18
27 16 38
27 17 19
27 18 92
27 19 50
27 20 62
27 21 44
27 22 46
27 23 59
27 24 15
27 25 49
27 26 17
28 0 19
28 1 16
28 2 6
28 3 32
28 4 68
28 5 2
28 6 5
28 7 35
28 8 25
28 9 29
28 10 20
28 11 7
28 12 90
28 13 16
28 14 54
28 15 8
28 16 77
28 17 97
28 18 6
28 19 27
28 20 77
28 21 45
28 22 14
28 23 4
28 24 75
28 25 65
28 26 54
28 27 55
29 0 54
29 1 88
29 2 90
29 3 18
29 4 57
29 5 12
29 6 28
29 7 4
29 8 9
29 9 53
29 10 98
29 11 8
29 12 97
29 13 26
29 14 77
29 15 33
29 16 67
29 17 60
29 18 31
29 19 9
29 20 6
29 21 6
29 22 18
29 23 34
29 24 82
29 25 9
29 26 14
29 27 57
29 28 88
30 0 47
30 1 24
30 2 70
30 3 10
30 4 50
30 5 99
30 6 97
30 7 95
30 8 63
30 9 84
30 10 97
30 11 14
30 12 13
30 13 47
30 14 98
30 15 33
30 16 89
30 17 76
30 18 48
30 19 37
30 20 49
30 21 49
30 22 50
30 23 72
30 24 17
30 25 1
30 26 1
30 27 6
30 28 25
30 29 44
31 0 74
31 1 8
31 2 17
31 3 34
31 4 95
31 5 15
31 6 29
31 7 65
31 8 8
31 9 24
31 10 90
31 11 44
31 12 44
31 13 32
31 14 35
31 15 85
31 16 12
31 17 10
31 18 4
31 19 16
31 20 97
31 21 85
31 22 74
31 23 92
31 24 38
31 25 73
31 26 60
31 27 52
31 28 90
31 29 71
31 30 62
32 0 67
32 1 32
32 2 14
32 3 52
32 4 76
32 5 47
32 6 50
32 7 39
32 8 87
32 9 97
32 10 94
32 11 44
32 12 8
32 13 75
32 14 55
32 15 67
32 16 27
32 17 83
32 18 56
32 19 47
32 20 53
32 21 5
32 22 87
32 23 32
32 24 98
32 25 42
32 26 57
32 27 16
32 28 50
32 29 33
32 30 39
32 31 7
33 0 75
33 1 6
33 2 36
33 3 36
33 4 41
33 5 96
33 6 85
33 7 22
33 8 65
33 9 42
33 10 99
33 11 44
33 12 3
33 13 56
33 14 9
33 15 96
33 16 63
33 17 15
33 18 48
33 19 25
33 20 89
33 21 22
33 22 3
33 23 70
33 24 50
33 25 34
33 26 14
33 27 54
33 28 42
33 29 69
33 30 98
33 31 6
33 32 77
34 0 11
34 1 40
34 2 7
34 3 18
34 4 5
34 5 64
34 6 87
34 7 90
34 8 94
34 9 73
34 10 19
34 11 72
34 12 34
34 13 44
34 14 84
34 15 47
34 16 18
34 17 94
34 18 13
34 19 68
34 20 58
34 21 62
34 22 19
34 23 71
34 24 31
34 25 68
34 26 73
34 27 39
34 28 84
34 29 57
34 30 100
34 31 92
34 32 39
34 33 29
35 0 90
35 1 74
35 2 71
35 3 100
35 4 51
35 5 35
35 6 18
35 7 79
35 8 50
35 9 63
35 10 73
35 11 26
35 12 14
35 13 86
35 14 50
35 15 33
35 16 99
35 17 58
35 18 30
35 19 55
35 20 42
35 21 8
35 22 33
35 23 67
35 24 46
35 25 98
35 26 56
35 27 36
35 28 71
35 29 42
35 30 3
35 31 21
35 32 43
35 33 52
35 34 63
36 0 62
36 1 81
36 2 48
36 3 35
36 4 97
36 5 9
36 6 19
36 7 96
36 8 24
36 9 26
36 10 34
36 11 63
36 12 16
36 13 21
36 14 48
36 15 100
36 16 28
36 17 69
36 18 28
36 19 64
36 20 74
36 21 54
36 22 24
36 23 91
36 24 52
36 25 80
36 26 35
36 27 73
36 28 51
36 29 97
36 30 62
36 31 69
36 32 69
36 33 31
36 34 37
36 35 60
37 0 18
37 1 100
37 2 74
37 3 29
37 4 5
37 5 61
37 6 82
37 7 34
37 8 4
37 9 9
37 10 38
37 11 13
37 12 70
37 13 42
37 14 8
37 15 15
37 16 55
37 17 33
37 18 49
37 19 67
37 20 18
37 21 8
37 22 65
37 23 22
37 24 53
37 25 92
37 26 66
37 27 31
37 28 77
37 29 88
37 30 68
37 31 43
37 32 34
37 33 99
37 34 36
37 35 36
37 36 22
38 0 99
38 1 45
38 2 15
38 3 56
38 4 28
38 5 28
38 6 43
38 7 5
38 8 49
38 9 21
38 10 82
38 11 73
38 12 12
38 13 32
38 14 71
38 15 25
38 16 95
38 17 94
38 18 64
38 19 58
38 20 25
38 21 72
38 22 85
38 23 75
38 24 7
38 25 48
38 26 12
38 27 26
38 28 97
38 29 84
38 30 65
38 31 6
38 32 4
38 33 58
38 34 68
38 35 19
38 36 15
38 37 8
39 0 27
39 1 79
39 2 75
39 3 33
39 4 8
39 5 78
39 6 52
39 7 45
39 8 45
39 9 40
39 10 83
39 11 49
39 12 94
39 13 77
39 14 85
39 15 27
39 16 9
39 17 68
39 18 58
39 19 20
39 20 11
39 21 59
39 22 38
39 23 56
39 24 83
39 25 53
39 26 57
39 27 62
39 28 7
39 29 19
39 30 21
39 31 51
39 32 13
39 33 58
39 34 33
39 35 89
39 36 24
39 37 94
39 38 90
40 0 62
40 1 20
40 2 91
40 3 58
40 4 10
40 5 32
40 6 98
40 7 94
40 8 2
40 9 53
40 10 74
40 11 59
40 12 56
40 13 41
40 14 67
40 15 60
40 16 39
40 17 23
40 18 22
40 19 4
40 20 97
40 21 39
40 22 53
40 23 53
40 24 1
40 25 94
40 26 10
40 27 8
40 28 5
40 29 89
40 30 16
40 31 76
40 32 56
40 33 63
40 34 61
40 35 86
40 36 1
40 37 57
40 38 73
40 39 53
41 0 88
41 1 89
41 2 14
41 3 23
41 4 40
41 5 4
41 6 50
41 7 36
41 8 59
41 9 19
41 10 18
41 11 93
41 12 94
41 13 4
41 14 76
41 15 10
41 16 68
41 17 53
41 18 3
41 19 99
41 20 61
41 21 29
41 22 95
41 23 17
41 24 82
41 25 11
41 26 76
41 27 56
41 28 79
41 29 55
41 30 12
41 31 74
41 32 83
41 33 47
41 34 98
41 35 95
41 36 67
41 37 38
41 38 59
41 39 17
41 40 76
42 0 51
42 1 86
42 2 17
42 3 61
42 4 18
42 5 98
42 6 32
42 7 11
42 8 2
42 9 90
42 10 60
42 11 87
42 12 81
42 13 31
42 14 16
42 15 74
42 16 20
42 17 98
42 18 23
42 19 29
42 20 54
42 21 69
42 22 30
42 23 85
42 24 56
42 25 21
42 26 95
42 27 28
42 28 62
42 29 92
42 30 68
42 31 70
42 32 80
42 33 3
42 34 49
42 35 78
42 36 8
42 37 66
42 38 30
42 39 38
42 40 23
42 41 4
43 0 36
43 1 57
43 2 31
43 3 64
43 4 12
43 5 31
43 6 97
43 7 15
43 8 43
43 9 48
43 10 70
43 11 36
43 12 86
43 13 80
43 14 84
43 15 51
43 16 58
43 17 1
43 18 14
43 19 78
43 20 12
43 21 32
43 22 98
43 23 66
43 24 91
43 25 86
43 26 61
43 27 64
43 28 38
43 29 89
43 30 7
43 31 45
43 32 9
43 33 78
43 34 55
43 35 64
43 36 22
43 37 12
43 38 47
43 39 32
43 40 19
43 41 42
43 42 43
44 0 31
44 1 48
44 2 36
44 3 82
44 4 20
44 5 71
44 6 47
44 7 94
44 8 74
44 9 71
44 10 59
44 11 57
44 12 83
44 13 8
44 14 78
44 15 55
44 16 95
44 17 44
44 18 30
44 19 97
44 20 75
44 21 36
44 22 84
44 23 62
44 24 22
44 25 80
44 26 21
44 27 10
44 28 58
44 29 41
44 30 13
44 31 77
44 32 94
44 33 99
44 34 91
44 35 21
44 36 13
44 37 20
44 38 92
44 39 4
44 40 53
44 41 2
44 42 38
44 43 18
45 0 65
45 1 72
45 2 88
45 3 9
45 4 79
45 5 34
45 6 44
45 7 28
45 8 2
45 9 90
45 10 21
45 11 29
45 12 38
45 13 80
45 14 2
45 15 2
45 16 4
45 17 22
45 18 53
45 19 87
45 20 70
45 21 41
45 22 45
45 23 35
45 24 62
45 25 26
45 26 25
45 27 85
45 28 92
45 29 44
45 30 43
45 31 91
45 32 17
45 33 99
45 34 84
45 35 16
45 36 38
45 37 36
45 38 20
45 39 68
45 40 78
45 41 1
45 42 41
45 43 50
45 44 16
46 0 15
46 1 31
46 2 58
46 3 65
46 4 43
46 5 28
46 6 33
46 7 7
46 8 35
46 9 48
46 10 57
46 11 35
46 12 87
46 13 87
46 14 63
46 15 68
46 16 54
46 17 20
46 18 70
46 19 25
46 20 96
46 21 58
46 22 89
46 23 89
46 24 56
46 25 45
46 26 54
46 27 84
46 28 94
46 29 94
46 30 69
46 31 52
46 32 17
46 33 100
46 34 70
46 35 17
46 36 94
46 37 75
46 38 63
46 39 39
46 40 43
46 41 95
46 42 69
46 43 25
46 44 20
46 45 58
47 0 88
47 1 44
47 2 50
47 3 84
47 4 80
47 5 52
47 6 94
47 7 15
47 8 97
47 9 36
47 10 21
47 11 93
47 12 42
47 13 24
47 14 36
47 15 16
47 16 23
47 17 26
47 18 99
47 19 15
47 20 30
47 21 6
47 22 12
47 23 93
47 24 55
47 25 86
47 26 67
47 27 15
47 28 32
47 29 44
47 30 97
47 31 51
47 32 73
47 33 63
47 34 51
47 35 2
47 36 14
47 37 23
47 38 95
47 39 65
47 40 10
47 41 57
47 42 17
47 43 17
47 44 37
47 45 14
47 46 69
48 0 19
48 1 86
48 2 91
48 3 96
48 4 80
48 5 68
48 6 37
48 7 21
48 8 26
48 9 55
48 10 34
48 11 89
48 12 57
48 13 33
48 14 10
48 15 91
48 16 2
48 17 33
48 18 36
48 19 16
48 20 91
48 21 74
48 22 21
48 23 10
48 24 15
48 25 38
48 26 99
48 27 35
48 28 40
48 29 43
48 30 73
48 31 56
48 32 85
48 33 5
48 34 62
48 35 2
48 36 94
48 37 93
48 38 65
48 39 77
48 40 63
48 41 21
48 42 36
48 43 16
48 44 90
48 45 25
48 46 41
48 47 16
49 0 60
49 1 33
49 2 34
49 3 88
49 4 2
49 5 15
49 6 72
49 7 98
49 8 56
49 9 69
49 10 64
49 11 5
49 12 45
49 13 96
49 14 14
49 15 19
49 16 54
49 17 42
49 18 14
49 19 17
49 20 37
49 21 38
49 22 87
49 23 5
49 24 23
49 25 59
49 26 94
49 27 14
49 28 83
49 29 66
49 30 42
49 31 63
49 32 79
49 33 19
49 34 79
49 35 31
49 36 17
49 37 78
49 38 43
49 39 8
49 40 56
49 41 15
49 42 5
49 43 42
49 44 64
49 45 10
49 46 34
49 47 81
49 48 15
50 0 16
50 1 64
50 2 82
50 3 63
50 4 94
50 5 34
50 6 40
50 7 46
50 8 69
50 9 54
50 10 54
50 11 4
50 12 60
50 13 100
50 14 46
50 15 7
50 16 68
50 17 32
50 18 73
50 19 34
50 20 41
50 21 23
50 22 23
50 23 52
50 24 47
50 25 9
50 26 83
50 27 71
50 28 16
50 29 6
50 30 6
50 31 98
50 32 43
50 33 65
50 34 21
50 35 88
50 36 54
50 37 57
50 38 68
50 39 86
50 40 80
50 41 99
50 42 52
50 43 7
50 44 97
50 45 70
50 46 39
50 47 77
50 48 19
50 49 87
51 0 46
51 1 62
51 2 49
51 3 23
51 4 94
51 5 37
51 6 39
51 7 97
51 8 30
51 9 73
51 10 1
51 11 66
51 12 39
51 13 62
51 14 76
51 15 100
51 16 84
51 17 85
51 18 55
51 19 21
51 20 69
51 21 100
51 22 95
51 23 31
51 24 6
51 25 23
51 26 98
51 27 69
51 28 19
51 29 99
51 30 23
51 31 60
51 32 27
51 33 9
51 34 64
51 35 62
51 36 86
51 37 53
51 38 8
51 39 8
51 40 90
51 41 98
51 42 49
51 43 9
51 44 48
51 45 90
51 46 46
51 47 66
51 48 85
51 49 70
51 50 16
52 0 94
52 1 53
52 2 39
52 3 31
52 4 73
52 5 41
52 6 49
52 7 48
52 8 66
52 9 5
52 10 48
52 11 77
52 12 81
52 13 76
52 14 73
52 15 99
52 16 55
52 17 16
52 18 83
52 19 54
52 20 90
52 21 15
52 22 86
52 23 86
52 24 75
52 25 63
52 26 73
52 27 1
52 28 71
52 29 42
52 30 96
52 31 80
52 32 41
52 33 4
52 34 37
52 35 58
52 36 49
52 37 45
52 38 44
52 39 44
52 40 71
52 41 99
52 42 57
52 43 68
52 44 81
52 45 83
52 46 33
52 47 61
52 48 11
52 49 96
52 50 38
52 51 2
53 0 94
53 1 42
53 2 83
53 3 13
53 4 43
53 5 20
53 6 8
53 7 51
53 8 20
53 9 23
53 10 42
53 11 54
53 12 9
53 13 20
53 14 4
53 15 39
53 16 83
53 17 16
53 18 11
53 19 30
53 20 27
53 21 27
53 22 6
53 23 12
53 24 87
53 25 100
53 26 39
53 27 92
53 28 17
53 29 69
53 30 49
53 31 42
53 32 63
53 33 35
53 34 28
53 35 53
53 36 17
53 37 95
53 38 82
53 39 4
53 40 8
53 41 79
53 42 3
53 43 50
53 44 23
53 45 52
53 46 18
53 47 73
53 48 83
53 49 95
53 50 98
53 51 43
53 52 1
54 0 80
54 1 16
54 2 94
54 3 10
54 4 89
54 5 6
54 6 9
54 7 30
54 8 56
54 9 59
54 10 66
54 11 20
54 12 26
54 13 45
54 14 90
54 15 24
54 16 53
54 17 69
54 18 9
54 19 9
54 20 90
54 21 82
54 22 27
54 23 74
54 24 49
54 25 10
54 26 36
54 27 37
54 28 14
54 29 78
54 30 48
54 31 74
54 32 54
54 33 34
54 34 11
54 35 36
54 36 58
54 37 100
54 38 46
54 39 73
54 40 92
54 41 13
54 42 16
54 43 64
54 44 56
54 45 34
54 46 7
54 47 97
54 48 81
54 49 15
54 50 96
54 51 70
54 52 3
54 53 80
55 0 26
55 1 7
55 2 91
55 3 59
55 4 19
55 5 1
55 6 31
55 7 50
55 8 82
55 9 31
55 10 91
55 11 28
55 12 13
55 13 17
55 14 5
55 15 28
55 16 93
55 17 16
55 18 65
55 19 49
55 20 19
55 21 55
55 22 10
55 23 60
55 24 30
55 25 70
55 26 35
55 27 31
55 28 16
55 29 97
55 30 76
55 31 89
55 32 20
55 33 20
55 34 39
55 35 84
55 36 68
55 37 89
55 38 74
55 39 19
55 40 94
55 41 52
55 42 18
55 43 76
55 44 38
55 45 63
55 46 55
55 47 36
55 48 35
55 49 75
55 50 65
55 51 84
55 52 28
55 53 9
55 54 68
56 0 46
56 1 68
56 2 68
56 3 76
56 4 85
56 5 85
56 6 48
56 7 14
56 8 77
56 9 46
56 10 44
56 11 67
56 12 28
56 13 30
56 14 65
56 15 79
56 16 97
56 17 87
56 18 3
56 19 90
56 20 56
56 21 61
56 22 30
56 23 3
56 24 91
56 25 98
56 26 99
56 27 14
56 28 14
56 29 65
56 30 85
56 31 34
56 32 62
56 33 50
56 34 96
56 35 13
56 36 90
56 37 18
56 38 26
56 39 11
56 40 85
56 41 50
56 42 43
56 43 9
56 44 56
56 45 89
56 46 32
56 47 32
56 48 86
56 49 55
56 50 28
56 51 30
56 52 41
56 53 27
56 54 11
56 55 56
57 0 78
57 1 83
57 2 61
57 3 15
57 4 95
57 5 61
57 6 81
57 7 88
57 8 15
57 9 71
57 10 33
57 11 41
57 12 97
57 13 76
57 14 63
57 15 95
57 16 12
57 17 27
57 18 97
57 19 96
57 20 42
57 21 6
57 22 27
57 23 12
57 24 71
57 25 28
57 26 36
57 27 68
57 28 82
57 29 96
57 30 29
57 31 70
57 32 85
57 33 14
57 34 49
57 35 89
57 36 41
57 37 95
57 38 16
57 39 15
57 40 43
57 41 31
57 42 17
57 43 87
57 44 83
57 45 5
57 46 19
57 47 63
57 48 10
57 49 61
57 50 98
57 51 98
57 52 60
57 53 62
57 54 4
57 55 28
57 56 13
58 0 8
58 1 96
58 2 85
58 3 4
58 4 84
58 5 26
58 6 92
58 7 99
58 8 71
58 9 56
58 10 14
58 11 8
58 12 36
58 13 31
58 14 57
58 15 1
58 16 71
58 17 43
58 18 44
58 19 44
58 20 74
58 21 66
58 22 22
58 23 73
58 24 65
58 25 39
58 26 63
58 27 74
58 28 100
58 29 33
58 30 59
58 31 37
58 32 13
58 33 22
58 34 48
58 35 98
58 36 99
58 37 51
58 38 4
58 39 94
58 40 36
58 41 71
58 42 71
58 43 91
58 44 83
58 45 70
58 46 44
58 47 55
58 48 21
58 49 47
58 50 16
58 51 85
58 52 17
58 53 81
58 54 36
58 55 27
58 56 25
58 57 3
59 0 61
59 1 30
59 2 62
59 3 84
59 4 99
59 5 21
59 6 19
59 7 71
59 8 58
59 9 4
59 10 88
59 11 58
59 12 56
59 13 21
59 14 31
59 15 70
59 16 77
59 17 11
59 18 6
59 19 78
59 20 42
59 21 71
59 22 35
59 23 100
59 24 58
59 25 10
59 26 77
59 27 37
59 28 56
59 29 21
59 30 35
59 31 57
59 32 22
59 33 46
59 34 31
59 35 22
59 36 95
59 37 91
59 38 94
59 39 27
59 40 84
59 41 13
59 42 72
59 43 88
59 44 17
59 45 100
59 46 60
59 47 6
59 48 33
59 49 5
59 50 88
59 51 87
59 52 89
59 53 7
59 54 35
59 55 97
59 56 16
59 57 12
59 58 40
60 0 94
60 1 73
60 2 18
60 3 44
60 4 37
60 5 76
60 6 3
60 7 73
60 8 95
60 9 87
60 10 9
60 11 48
60 12 94
60 13 7
60 14 45
60 15 91
60 16 66
60 17 4
60 18 9
60 19 49
60 20 100
60 21 61
60 22 19
60 23 62
60 24 8
60 25 37
60 26 1
60 27 48
60 28 51
60 29 66
60 30 66
60 31 83
60 32 88
60 33 47
60 34 86
60 35 90
60 36 46
60 37 96
60 38 34
60 39 74
60 40 26
60 41 48
60 42 65
60 43 63
60 44 89
60 45 61
60 46 50
60 47 41
60 48 87
60 49 34
60 50 78
60 51 87
60 52 31
60 53 46
60 54 97
60 55 55
60 56 24
60 57 93
60 58 65
60 59 52
61 0 79
61 1 57
61 2 18
61 3 8
61 4 23
61 5 56
61 6 87
61 7 47
61 8 39
61 9 37
61 10 17
61 11 87
61 12 3
61 13 30
61 14 65
61 15 44
61 16 29
61 17 71
61 18 93
61 19 17
61 20 10
61 21 55
61 22 76
61 23 66
61 24 29
61 25 72
61 26 74
61 27 27
61 28 75
61 29 59
61 30 74
61 31 11
61 32 96
61 33 54
61 34 76
61 35 88
61 36 60
61 37 32
61 38 70
61 39 61
61 40 16
61 41 77
61 42 64
61 43 66
61 44 69
61 45 96
61 46 23
61 47 52
61 48 24
61 49 98
61 50 47
61 51 53
61 52 49
61 53 93
61 54 2
61 55 23
61 56 62
61 57 71
61 58 62
61 59 13
61 60 56
62 0 73
62 1 56
62 2 19
62 3 4
62 4 71
62 5 99
62 6 3
62 7 11
62 8 4
62 9 59
62 10 94
62 11 11
62 12 59
62 13 13
62 14 9
62 15 14
62 16 68
62 17 55
62 18 49
62 19 65
62 20 72
62 21 82
62 22 61
62 23 59
62 24 90
62 25 78
62 26 77
62 27 29
62 28 56
62 29 46
62 30 61
62 31 2
62 32 51
62 33 84
62 34 40
62 35 82
62 36 18
62 37 90
62 38 83
62 39 26
62 40 38
62 41 46
62 42 60
62 43 85
62 44 29
62 45 17
62 46 1
62 47 67
62 48 65
62 49 63
62 50 36
62 51 18
62 52 43
62 53 57
62 54 77
62 55 32
62 56 44
62 57 39
62 58 74
62 59 49
62 60 67
62 61 71
63 0 76
63 1 78
63 2 25
63 3 65
63 4 49
63 5 80
63 6 40
63 7 87
63 8 52
63 9 83
63 10 75
63 11 79
63 12 71
63 13 16
63 14 78
63 15 35
63 16 52
63 17 81
63 18 43
63 19 32
63 20 95
63 21 13
63 22 13
63 23 9
63 24 93
63 25 85
63 26 54
63 27 20
63 28 27
63 29 55
63 30 6
63 31 32
63 32 57
63 33 76
63 34 84
63 35 31
63 36 69
63 37 5
63 38 59
63 39 51
63 40 59
63 41 85
63 42 77
63 43 56
63 44 74
63 45 86
63 46 82
63 47 23
63 48 37
63 49 29
63 50 36
63 51 16
63 52 30
63 53 33
63 54 79
63 55 46
63 56 6
63 57 49
63 58 53
63 59 53
63 60 53
63 61 79
63 62 85
64 0 70
64 1 42
64 2 99
64 3 17
64 4 32
64 5 19
64 6 16
64 7 9
64 8 58
64 9 31
64 10 44
64 11 63
64 12 13
64 13 94
64 14 78
64 15 44
64 16 27
64 17 39
64 18 95
64 19 97
64 20 32
64 21 5
64 22 9
64 23 77
64 24 35
64 25 53
64 26 64
64 27 55
64 28 52
64 29 18
64 30 50
64 31 58
64 32 55
64 33 45
64 34 56
64 35 51
64 36 24
64 37 47
64 38 10
64 39 85
64 40 89
64 41 3
64 42 72
64 43 52
64 44 14
64 45 71
64 46 61
64 47 36
64 48 67
64 49 88
64 50 59
64 51 37
64 52 46
64 53 89
64 54 4
64 55 18
64 56 95
64 57 54
64 58 66
64 59 94
64 60 5
64 61 75
64 62 76
64 63 70
